SDVRP instances/custom_instances/p10_29_split0.vrp
NAME:p10_29_split
BEST_KNOWN: 0
COMMENT: 0
DIMENSION: 856
CAPACITY: 200
EDGE_WEIGHT_FORMAT: FUNCTION
EDGE_WEIGHT_TYPE: EXACT_2D
NODE_COORD_SECTION
1 0.00000 0.00000
2 37 16
3 37 16
4 37 16
5 37 16
6 37 16
7 -47 8
8 -47 8
9 -47 8
10 -47 8
11 -45 -31
12 -45 -31
13 -45 -31
14 -45 -31
15 45 11
16 45 11
17 45 11
18 45 11
19 -39 -42
20 -39 -42
21 -39 -42
22 -5 28
23 -5 28
24 -5 28
25 -5 28
26 -5 28
27 7 -8
28 7 -8
29 -40 -43
30 -40 -43
31 -40 -43
32 -40 -43
33 -40 -43
34 -40 -43
35 -50 -3
36 -50 -3
37 -50 -3
38 -50 -3
39 -50 -3
40 -7 20
41 -7 20
42 -7 20
43 -7 20
44 -7 20
45 30 29
46 48 33
47 48 33
48 48 33
49 48 33
50 48 33
51 48 33
52 48 33
53 48 33
54 -2 35
55 -2 35
56 -2 35
57 -2 35
58 43 7
59 43 7
60 43 7
61 43 7
62 17 -41
63 17 -41
64 17 -41
65 -2 -39
66 -2 -39
67 -2 -39
68 29 2
69 29 2
70 29 2
71 -28 -17
72 -28 -17
73 -28 -17
74 -28 -17
75 -20 40
76 -20 40
77 -20 40
78 -20 40
79 -20 40
80 18 -4
81 18 -4
82 18 -4
83 18 -4
84 0 32
85 0 32
86 0 32
87 0 32
88 0 32
89 0 32
90 0 32
91 -35 -46
92 -35 -46
93 -35 -46
94 -35 -46
95 33 -25
96 33 -25
97 33 -25
98 15 43
99 15 43
100 15 43
101 15 43
102 15 43
103 15 43
104 15 43
105 -17 -26
106 -17 -26
107 -17 -26
108 -24 -28
109 -24 -28
110 -41 -28
111 -41 -28
112 -41 -28
113 -41 -28
114 -41 -28
115 49 -2
116 49 -2
117 49 -2
118 -3 1
119 -3 1
120 -3 1
121 -3 1
122 -3 1
123 -3 1
124 -24 49
125 -24 49
126 -24 49
127 -24 49
128 -23 -44
129 -23 -44
130 -23 -44
131 -23 -44
132 -23 -44
133 -23 -44
134 42 29
135 42 29
136 42 29
137 42 29
138 42 29
139 -36 14
140 -36 14
141 -36 14
142 -36 14
143 -36 14
144 -36 14
145 -9 -41
146 -9 -41
147 -9 -41
148 -9 -41
149 -9 -41
150 7 -39
151 7 -39
152 33 44
153 33 44
154 33 44
155 33 44
156 7 -40
157 7 -40
158 -36 -32
159 -36 -32
160 -36 -32
161 -36 -32
162 49 -32
163 49 -32
164 49 -32
165 49 -32
166 49 -32
167 49 -32
168 -29 -50
169 -29 -50
170 -29 -50
171 -29 -50
172 -29 -50
173 5 -35
174 5 -35
175 5 -35
176 5 -35
177 5 -35
178 5 -35
179 10 -50
180 10 -50
181 10 -50
182 10 -50
183 -6 -20
184 -6 -20
185 -6 -20
186 -6 -20
187 -6 -20
188 -6 -20
189 31 -43
190 31 -43
191 31 -43
192 -43 -18
193 -43 -18
194 -43 -18
195 -43 -18
196 -18 15
197 -18 15
198 -18 15
199 37 -31
200 37 -31
201 37 -31
202 28 37
203 28 37
204 35 49
205 35 49
206 35 49
207 35 49
208 35 49
209 19 0
210 19 0
211 19 0
212 1 15
213 1 15
214 1 15
215 1 15
216 1 15
217 1 15
218 1 15
219 37 -19
220 37 -19
221 37 -19
222 37 -19
223 -25 28
224 -25 28
225 -25 28
226 -38 10
227 -38 10
228 -38 10
229 33 6
230 33 6
231 33 6
232 33 6
233 30 3
234 1 40
235 1 40
236 1 40
237 1 40
238 1 40
239 1 40
240 20 6
241 20 6
242 20 6
243 20 6
244 20 6
245 34 -8
246 34 -8
247 34 -8
248 49 -4
249 49 -4
250 49 -4
251 49 -4
252 49 -4
253 49 -4
254 49 -4
255 -42 6
256 -42 6
257 -42 6
258 -42 6
259 20 -10
260 20 -10
261 20 -10
262 20 -10
263 -4 45
264 -4 45
265 -4 45
266 -4 45
267 41 43
268 41 43
269 36 41
270 36 41
271 36 41
272 36 41
273 36 41
274 36 41
275 -19 7
276 -19 7
277 -19 7
278 -19 7
279 27 -20
280 27 -20
281 27 -20
282 27 -20
283 27 -20
284 27 -20
285 4 44
286 4 44
287 4 44
288 -41 -49
289 -41 -49
290 -41 -49
291 -41 -49
292 -41 -49
293 45 -2
294 45 -2
295 45 -2
296 24 -25
297 24 -25
298 24 -25
299 24 -25
300 24 -25
301 17 14
302 17 14
303 17 14
304 7 12
305 7 12
306 7 12
307 7 12
308 -19 16
309 -19 16
310 -19 16
311 35 41
312 35 41
313 35 41
314 35 41
315 35 41
316 35 41
317 35 41
318 -2 42
319 -2 42
320 -2 42
321 -2 42
322 -39 -35
323 -39 -35
324 -39 -35
325 -39 -35
326 -39 -35
327 -39 -35
328 24 -1
329 24 -1
330 24 -1
331 24 -1
332 24 -1
333 -50 30
334 -50 30
335 -50 30
336 -50 30
337 -50 30
338 24 -46
339 24 -46
340 24 -46
341 24 -46
342 24 -46
343 24 -46
344 24 -46
345 -34 -48
346 -34 -48
347 -34 -48
348 -34 -48
349 -34 -48
350 -37 -42
351 2 2
352 2 2
353 2 2
354 2 2
355 2 21
356 2 21
357 2 21
358 2 21
359 36 41
360 36 41
361 36 41
362 36 41
363 6 -10
364 6 -10
365 6 -10
366 6 -10
367 6 -10
368 -25 21
369 -25 21
370 -25 21
371 -25 21
372 -25 21
373 -25 21
374 38 13
375 38 13
376 38 13
377 38 13
378 38 13
379 -42 -26
380 -42 -26
381 -42 -26
382 -42 -26
383 8 16
384 8 16
385 8 16
386 8 16
387 8 16
388 8 16
389 3 -33
390 3 -33
391 3 -33
392 3 -33
393 3 -33
394 19 32
395 19 32
396 19 32
397 -11 41
398 -11 41
399 -38 -23
400 -38 -23
401 -38 -23
402 -38 -23
403 48 35
404 48 35
405 48 35
406 48 35
407 48 35
408 48 35
409 -18 10
410 -18 10
411 -18 10
412 -18 10
413 8 27
414 8 27
415 8 27
416 8 27
417 8 27
418 8 27
419 -17 12
420 -17 12
421 -17 12
422 -17 12
423 -18 2
424 -18 2
425 27 0
426 27 0
427 27 0
428 44 6
429 44 6
430 44 6
431 44 6
432 44 6
433 48 -25
434 27 8
435 27 8
436 -40 29
437 -40 29
438 -40 29
439 46 16
440 46 16
441 46 16
442 9 -32
443 9 -32
444 -23 40
445 -23 40
446 -23 40
447 -23 40
448 -23 40
449 -23 40
450 -23 40
451 -15 30
452 -15 30
453 -15 30
454 -15 30
455 0 48
456 0 48
457 0 48
458 0 48
459 -37 15
460 -37 15
461 -37 15
462 -37 15
463 -37 15
464 -37 15
465 44 -16
466 44 -16
467 44 -16
468 44 -16
469 28 39
470 28 39
471 28 39
472 28 39
473 28 39
474 50 -40
475 50 -40
476 9 26
477 9 26
478 9 26
479 42 -39
480 42 -39
481 42 -39
482 42 -39
483 42 -39
484 42 -39
485 3 8
486 3 8
487 3 8
488 3 8
489 4 6
490 4 6
491 4 6
492 4 6
493 4 6
494 -41 -13
495 -41 -13
496 -41 -13
497 -41 -13
498 -41 -13
499 38 28
500 38 28
501 38 28
502 38 28
503 39 31
504 39 31
505 39 31
506 25 -7
507 25 -7
508 25 -7
509 25 -7
510 25 -7
511 49 -27
512 49 -27
513 49 -27
514 49 -27
515 49 -27
516 -3 -40
517 -3 -40
518 -3 -40
519 -3 -40
520 -3 -40
521 -3 -40
522 -3 -40
523 -3 -40
524 -24 -47
525 -24 -47
526 -24 -47
527 -24 -47
528 -24 -47
529 -24 -47
530 -24 -47
531 -25 13
532 -25 13
533 -25 13
534 -25 13
535 4 31
536 4 31
537 4 31
538 4 31
539 4 31
540 -16 -18
541 -16 -18
542 -16 -18
543 -16 -18
544 40 -24
545 40 -24
546 40 -24
547 0 50
548 0 50
549 0 50
550 42 31
551 42 31
552 42 31
553 42 31
554 42 31
555 42 31
556 -21 43
557 -21 43
558 -21 43
559 -21 43
560 -21 43
561 -21 43
562 31 17
563 31 17
564 -41 46
565 -41 46
566 -41 46
567 22 32
568 22 32
569 22 32
570 22 32
571 -48 -30
572 -48 -30
573 -48 -30
574 38 -23
575 38 -23
576 21 15
577 21 15
578 21 15
579 21 15
580 21 15
581 21 15
582 20 -16
583 20 -16
584 20 -16
585 20 -16
586 20 -16
587 20 -16
588 20 -16
589 22 -5
590 22 -5
591 22 -5
592 22 -5
593 -50 31
594 -50 31
595 -50 31
596 -50 31
597 -50 31
598 -50 31
599 -36 -33
600 -36 -33
601 -36 -33
602 -36 -33
603 -36 -33
604 -7 -24
605 -7 -24
606 -7 -24
607 -7 -24
608 -7 -24
609 -7 -24
610 -7 -17
611 -7 -17
612 -7 -17
613 -7 -17
614 -11 12
615 -11 12
616 -11 12
617 -11 12
618 0 -9
619 0 -9
620 0 -9
621 0 -9
622 37 39
623 37 39
624 37 39
625 37 39
626 50 -47
627 50 -47
628 50 -47
629 37 -23
630 37 -23
631 37 -23
632 -22 3
633 -22 3
634 -22 3
635 -22 3
636 -22 3
637 1 2
638 1 2
639 1 2
640 1 2
641 1 2
642 26 -29
643 26 -29
644 26 -29
645 26 -29
646 26 -29
647 26 -29
648 26 -29
649 -22 29
650 -22 29
651 -22 29
652 -33 -25
653 -33 -25
654 -33 -25
655 43 36
656 43 36
657 43 36
658 43 36
659 43 36
660 21 -12
661 21 -12
662 21 -12
663 21 -12
664 21 -12
665 21 -12
666 30 -24
667 30 -24
668 30 -24
669 42 -20
670 42 -20
671 42 -20
672 42 -20
673 42 -20
674 -15 -12
675 -15 -12
676 -15 -12
677 19 4
678 19 4
679 19 4
680 19 4
681 47 -30
682 47 -30
683 47 -30
684 47 -30
685 47 -30
686 47 -30
687 3 35
688 3 35
689 3 35
690 3 35
691 3 35
692 3 35
693 4 26
694 4 26
695 4 26
696 4 26
697 4 26
698 47 5
699 47 5
700 47 5
701 47 5
702 47 5
703 47 5
704 47 5
705 1 14
706 1 14
707 1 14
708 9 3
709 9 3
710 9 3
711 9 3
712 9 3
713 -44 23
714 -44 23
715 -44 23
716 20 -20
717 -22 16
718 -22 16
719 -22 16
720 33 15
721 33 15
722 33 15
723 33 15
724 33 15
725 4 -14
726 4 -14
727 4 -14
728 4 -14
729 4 -14
730 4 -14
731 18 25
732 18 25
733 18 25
734 18 25
735 18 25
736 18 25
737 -40 -37
738 -40 -37
739 -40 -37
740 31 32
741 31 32
742 31 32
743 -11 30
744 -11 30
745 13 2
746 13 2
747 13 2
748 13 2
749 13 2
750 13 2
751 9 -25
752 9 -25
753 9 -25
754 9 -25
755 9 -25
756 39 1
757 39 1
758 39 1
759 39 1
760 39 1
761 39 1
762 27 -29
763 27 -29
764 27 -29
765 27 -29
766 27 -29
767 27 -29
768 -33 -46
769 -33 -46
770 -33 -46
771 -33 -46
772 -33 -46
773 24 -50
774 24 -50
775 24 -50
776 24 -50
777 24 -50
778 -45 -9
779 -45 -9
780 -45 -9
781 -45 -9
782 49 -50
783 49 -50
784 49 -50
785 49 -50
786 49 -50
787 29 -23
788 29 -23
789 29 -23
790 29 -23
791 29 -23
792 29 -23
793 10 20
794 10 20
795 10 20
796 10 20
797 18 19
798 18 19
799 18 19
800 -23 -35
801 -23 -35
802 -23 -35
803 -23 -35
804 -33 -19
805 -33 -19
806 27 -2
807 27 -2
808 27 -2
809 27 -2
810 -1 -9
811 -1 -9
812 -29 41
813 -29 41
814 -29 41
815 -29 41
816 -29 41
817 -29 41
818 -33 49
819 -33 49
820 -33 49
821 -33 49
822 -33 49
823 -33 49
824 -50 -9
825 -50 -9
826 -50 -9
827 -14 -11
828 -14 -11
829 -14 -11
830 41 -1
831 41 -1
832 41 -1
833 41 -1
834 42 -30
835 42 -30
836 42 -30
837 43 15
838 43 15
839 43 15
840 43 15
841 43 15
842 43 15
843 43 15
844 -41 50
845 -41 50
846 -41 50
847 -41 50
848 4 6
849 4 6
850 4 6
851 10 13
852 10 13
853 10 13
854 10 13
855 10 13
856 10 13
DEMAND_SECTION
1 0
2 40
3 20
4 2
5 2
6 2
7 40
8 20
9 10
10 2
11 40
12 10
13 2
14 2
15 40
16 20
17 10
18 2
19 40
20 20
21 10
22 40
23 10
24 2
25 2
26 1
27 20
28 10
29 40
30 20
31 2
32 2
33 2
34 1
35 40
36 20
37 2
38 2
39 2
40 40
41 10
42 2
43 2
44 2
45 40
46 40
47 20
48 10
49 2
50 2
51 2
52 2
53 1
54 20
55 10
56 2
57 1
58 20
59 2
60 2
61 1
62 40
63 40
64 1
65 40
66 10
67 2
68 40
69 40
70 10
71 20
72 2
73 2
74 2
75 40
76 20
77 2
78 2
79 1
80 40
81 2
82 2
83 1
84 20
85 10
86 2
87 2
88 2
89 2
90 1
91 40
92 2
93 2
94 1
95 20
96 10
97 1
98 40
99 20
100 10
101 2
102 2
103 2
104 2
105 40
106 40
107 10
108 40
109 20
110 40
111 20
112 10
113 2
114 2
115 40
116 40
117 2
118 40
119 20
120 10
121 2
122 2
123 2
124 20
125 2
126 2
127 1
128 40
129 40
130 10
131 2
132 2
133 2
134 40
135 40
136 10
137 2
138 1
139 40
140 40
141 2
142 2
143 2
144 1
145 40
146 20
147 2
148 2
149 1
150 40
151 40
152 40
153 20
154 2
155 2
156 40
157 1
158 20
159 10
160 2
161 1
162 40
163 40
164 10
165 2
166 2
167 2
168 40
169 40
170 2
171 2
172 1
173 40
174 40
175 2
176 2
177 2
178 2
179 40
180 2
181 2
182 1
183 20
184 10
185 2
186 2
187 2
188 2
189 40
190 2
191 2
192 20
193 10
194 2
195 1
196 40
197 10
198 2
199 40
200 20
201 1
202 40
203 2
204 20
205 2
206 2
207 2
208 2
209 40
210 20
211 2
212 20
213 10
214 2
215 2
216 2
217 2
218 1
219 40
220 10
221 2
222 1
223 40
224 10
225 2
226 40
227 10
228 1
229 20
230 2
231 2
232 2
233 40
234 20
235 10
236 2
237 2
238 2
239 2
240 40
241 20
242 2
243 2
244 1
245 40
246 20
247 1
248 40
249 40
250 2
251 2
252 2
253 2
254 1
255 20
256 10
257 2
258 2
259 40
260 20
261 10
262 2
263 40
264 2
265 2
266 1
267 20
268 10
269 40
270 40
271 2
272 2
273 2
274 2
275 20
276 10
277 2
278 2
279 40
280 40
281 10
282 2
283 2
284 2
285 40
286 10
287 2
288 40
289 10
290 2
291 2
292 2
293 40
294 40
295 10
296 40
297 40
298 10
299 2
300 2
301 40
302 40
303 2
304 40
305 20
306 2
307 1
308 40
309 40
310 2
311 20
312 10
313 2
314 2
315 2
316 2
317 1
318 20
319 10
320 2
321 1
322 40
323 10
324 2
325 2
326 2
327 1
328 40
329 20
330 2
331 2
332 2
333 40
334 40
335 10
336 2
337 2
338 40
339 20
340 10
341 2
342 2
343 2
344 1
345 40
346 10
347 2
348 2
349 2
350 40
351 40
352 20
353 2
354 2
355 40
356 40
357 2
358 2
359 20
360 10
361 2
362 1
363 40
364 10
365 2
366 2
367 1
368 40
369 20
370 10
371 2
372 2
373 2
374 20
375 2
376 2
377 2
378 2
379 40
380 20
381 2
382 1
383 40
384 10
385 2
386 2
387 2
388 1
389 40
390 20
391 2
392 2
393 2
394 40
395 40
396 1
397 40
398 1
399 40
400 40
401 2
402 1
403 40
404 10
405 2
406 2
407 2
408 1
409 40
410 40
411 10
412 1
413 40
414 20
415 10
416 2
417 2
418 1
419 40
420 40
421 2
422 2
423 40
424 10
425 40
426 20
427 2
428 20
429 10
430 2
431 2
432 2
433 40
434 40
435 20
436 40
437 40
438 20
439 40
440 40
441 2
442 40
443 40
444 40
445 10
446 2
447 2
448 2
449 2
450 1
451 40
452 2
453 2
454 2
455 40
456 10
457 2
458 1
459 40
460 10
461 2
462 2
463 2
464 2
465 40
466 20
467 2
468 2
469 20
470 10
471 2
472 2
473 1
474 40
475 2
476 40
477 20
478 1
479 40
480 40
481 2
482 2
483 2
484 1
485 40
486 40
487 10
488 2
489 40
490 2
491 2
492 2
493 1
494 40
495 20
496 2
497 2
498 1
499 40
500 2
501 2
502 2
503 40
504 40
505 10
506 40
507 20
508 2
509 2
510 1
511 40
512 20
513 2
514 2
515 2
516 40
517 40
518 10
519 2
520 2
521 2
522 2
523 1
524 40
525 10
526 2
527 2
528 2
529 2
530 1
531 40
532 40
533 10
534 2
535 40
536 10
537 2
538 2
539 1
540 40
541 20
542 2
543 2
544 40
545 40
546 1
547 40
548 2
549 1
550 40
551 40
552 2
553 2
554 2
555 1
556 20
557 10
558 2
559 2
560 2
561 1
562 40
563 10
564 40
565 40
566 1
567 40
568 20
569 2
570 1
571 40
572 40
573 10
574 40
575 1
576 40
577 20
578 2
579 2
580 2
581 1
582 40
583 40
584 10
585 2
586 2
587 2
588 1
589 40
590 10
591 2
592 2
593 40
594 20
595 10
596 2
597 2
598 2
599 40
600 20
601 2
602 2
603 1
604 20
605 10
606 2
607 2
608 2
609 1
610 20
611 10
612 2
613 2
614 40
615 20
616 10
617 2
618 20
619 10
620 2
621 1
622 40
623 2
624 2
625 1
626 40
627 20
628 10
629 40
630 40
631 2
632 40
633 40
634 2
635 2
636 2
637 20
638 2
639 2
640 2
641 2
642 20
643 10
644 2
645 2
646 2
647 2
648 1
649 40
650 40
651 10
652 20
653 10
654 2
655 20
656 2
657 2
658 2
659 2
660 20
661 2
662 2
663 2
664 2
665 1
666 20
667 10
668 2
669 40
670 10
671 2
672 2
673 1
674 40
675 2
676 1
677 40
678 10
679 2
680 2
681 40
682 20
683 10
684 2
685 2
686 1
687 40
688 40
689 2
690 2
691 2
692 1
693 40
694 20
695 2
696 2
697 1
698 20
699 10
700 2
701 2
702 2
703 2
704 1
705 40
706 20
707 10
708 20
709 2
710 2
711 2
712 2
713 40
714 40
715 10
716 40
717 20
718 10
719 2
720 20
721 10
722 2
723 2
724 1
725 40
726 20
727 10
728 2
729 2
730 2
731 40
732 20
733 2
734 2
735 2
736 2
737 40
738 10
739 2
740 40
741 2
742 1
743 20
744 10
745 40
746 2
747 2
748 2
749 2
750 1
751 20
752 2
753 2
754 2
755 1
756 40
757 20
758 10
759 2
760 2
761 2
762 20
763 10
764 2
765 2
766 2
767 1
768 40
769 20
770 10
771 2
772 1
773 40
774 10
775 2
776 2
777 2
778 40
779 10
780 2
781 1
782 40
783 20
784 10
785 2
786 1
787 40
788 40
789 2
790 2
791 2
792 1
793 40
794 20
795 2
796 2
797 40
798 40
799 2
800 40
801 10
802 2
803 1
804 40
805 1
806 40
807 2
808 2
809 1
810 40
811 1
812 40
813 40
814 2
815 2
816 2
817 2
818 40
819 20
820 2
821 2
822 2
823 2
824 40
825 40
826 10
827 20
828 10
829 1
830 40
831 2
832 2
833 2
834 40
835 2
836 1
837 40
838 10
839 2
840 2
841 2
842 2
843 1
844 20
845 10
846 2
847 1
848 20
849 10
850 2
851 20
852 2
853 2
854 2
855 2
856 1
DEPOT_SECTION
1
-1
EOF