SDVRP instances/custom_instances/p10_29_split0.sol
855 -2 3 440 439 438 842 837 840 841 836 838 839 376 375 377 373 374 -15 14 17 16 697 701 700 698 702 699 703 428 431 430 427 429 57 58 60 59 229 231 230 228 -18 19 290 289 291 288 287 90 92 93 768 769 800 -26 790 787 786 280 279 278 281 282 283 -27 647 642 646 645 644 643 763 764 765 762 761 766 296 297 298 295 299 715 -40 42 41 39 43 21 22 25 24 23 195 197 613 -44 502 503 133 134 -56 55 54 53 233 284 286 285 99 97 98 100 103 101 102 -64 66 65 520 518 519 181 180 178 179 61 63 62 728 727 726 -67 68 69 232 434 433 242 241 -72 71 73 70 107 108 105 104 106 184 183 185 186 187 -80 590 591 246 244 245 464 467 466 465 668 671 672 670 669 -81 82 79 588 589 508 506 505 509 507 208 210 -84 89 86 85 88 87 83 687 690 691 688 689 686 536 537 535 534 538 694 695 -94 166 161 162 165 163 164 681 680 682 685 683 684 -96 95 835 834 833 481 479 478 199 200 198 -110 111 109 112 113 324 321 325 323 600 602 598 601 599 159 160 158 -119 121 120 118 117 122 -132 131 130 128 127 129 524 526 523 528 525 529 527 799 801 802 -137 135 47 49 46 45 50 51 48 52 402 405 404 406 403 407 553 549 554 504 -142 139 140 141 138 143 463 460 462 458 459 461 227 226 225 -149 150 155 156 389 390 392 391 388 -157 326 322 736 738 737 28 30 32 29 31 33 20 349 -171 169 167 168 170 348 344 347 346 345 91 770 771 767 541 542 -174 173 175 177 176 172 442 441 754 750 751 752 753 -193 194 191 192 571 570 572 11 12 13 10 651 653 -196 565 563 564 845 844 846 843 822 819 821 818 817 820 -202 201 151 154 153 152 207 203 206 204 205 471 469 472 470 468 731 -209 426 425 424 808 805 806 807 327 330 328 331 329 -218 220 219 221 432 513 514 510 511 512 573 574 -234 236 238 235 237 456 455 457 454 547 546 548 262 265 263 264 319 318 320 317 -247 253 249 251 252 250 248 115 114 116 756 -255 257 256 254 8 7 9 6 37 38 36 34 35 778 -260 261 259 258 660 663 662 664 659 661 582 583 581 587 586 585 584 -275 276 277 274 631 632 634 633 635 423 422 -302 300 301 796 798 797 850 852 853 855 851 854 -306 303 305 304 793 792 794 795 384 382 383 385 387 386 -309 307 308 716 718 532 531 530 533 -312 311 314 359 273 269 272 270 268 622 624 623 621 739 741 740 -313 315 310 316 361 360 271 358 267 266 658 654 655 656 657 550 552 551 136 499 501 498 500 -333 336 332 335 334 597 596 595 593 592 594 368 369 -340 342 339 341 337 343 338 775 774 772 776 773 190 188 189 641 -350 -351 352 353 -357 354 356 355 214 215 216 213 211 217 212 705 706 704 -366 362 365 364 363 729 724 725 620 619 617 618 809 810 -371 372 370 367 222 224 223 649 648 650 615 616 -395 394 393 567 569 568 566 732 730 734 733 735 -397 396 557 556 558 559 555 560 124 126 125 123 814 816 811 812 815 813 -410 411 408 409 419 420 418 421 614 -450 453 451 452 443 444 448 447 445 446 449 77 75 76 78 74 742 743 -474 473 627 625 626 783 785 784 781 782 483 482 480 -477 475 476 415 417 414 413 412 416 692 696 693 -487 484 486 485 849 489 492 491 847 848 488 490 -497 494 493 496 495 823 825 824 779 780 777 -516 521 522 515 517 148 147 144 145 146 606 603 608 605 604 607 -580 575 576 579 577 578 561 562 5 1 4 720 722 719 723 721 -612 610 609 611 182 539 540 675 673 674 827 828 826 -629 630 628 543 544 545 666 667 665 788 789 791 -636 -639 638 637 640 -652 379 381 380 378 399 400 398 401 804 803 -711 710 709 708 707 243 240 239 676 677 678 679 746 745 747 744 748 749 -714 712 713 435 437 436 717 -755 758 757 759 760 294 292 293 831 832 830 829 0 





OBJ=
5405.474
BEST_KNOWN=
0.000